33D32945 STP File, STP Format Version 1.0

SECTION Comments
Name "edge_n11_d4_s4"
Problem "Euclidean Steiner Tree Problem"
Remark "Generated with STPGenerator. 4 dimensions."
END

SECTION Graph
Nodes 11
END

SECTION Coordinates
DDDD 0 0.9164578756 0.9164578756 0.9164578756 0.9164578756
DDDD 1 0.1339819669 0.1339819669 0.1339819669 0.1339819669
DDDD 2 0.1912108968 0.1912108968 0.1912108968 0.1912108968
DDDD 3 0.2600808285 0.2600808285 0.2600808285 0.2600808285
DDDD 4 0.2142811954 0.2142811954 0.2142811954 0.2142811954
DDDD 5 0.3601613163 0.3601613163 0.3601613163 0.3601613163
DDDD 6 0.4198029756 0.4198029756 0.4198029756 0.4198029756
DDDD 7 0.6540782580 0.6540782580 0.6540782580 0.6540782580
DDDD 8 0.1943656375 0.1943656375 0.1943656375 0.1943656375
DDDD 9 0.3097259371 0.3097259371 0.3097259371 0.3097259371
DDDD 10 0.5068725648 0.5068725648 0.5068725648 0.5068725648
END
